DIMENSION: 8
EDGE_WEIGHT_TYPE: EXPLICIT
EDGE_WEIGHT_FORMAT: FULL_MATRIX
EDGE_WEIGHT_SECTION:
32767 63 46 32767 10 7 19 98 
63 32767 31 99 80 76 76 9 
46 31 32767 42 6 36 36 89 
32767 99 42 32767 58 14 78 38 
10 80 6 58 32767 52 86 75 
7 76 36 14 52 32767 41 32767 
19 76 36 78 86 41 32767 16 
98 9 89 38 75 32767 16 32767 
EOF